FEATURES = {messagesAccess, search, appsAndServices, storageByAccount, storageByTeamMember, workspaces, customSections, slackConnect, guestsAccounts, dataCypher, twoFactorAuthentication, oAuthGoogle, singleSignOn, adminSlackEnterpriseKeys, enterpriseMobilitySecurity, customRules, exportMessages, complianceHIPAA, dataResidence, privilegesGeneralChannelManagement, privilegesPrivateChannelManagement, customUserGroups, usersManagement, activeDirectorySync, usersManagementSCIM, extraCompatibility, domainName, customSLAs, voiceAndVideoCalls, screenSharing, support, availability, personalTechnicalSupport};
USAGE_LIMITS = {useMessagesAccess, useAppsAndServices, useVoiceAndVideoCalls, useStorageByAccount, useStorageByTeamMember, useWorkspaces};
PLANS = {FREE, STANDARD, PLUS, ENTERPRISE_GRID};
ADDONS = {slackEnterpriseKeys};

plans_prices = [0.0,8.0,15.0,0.0];
addons_prices = [0.0];

plans_features = array2d(PLANS, FEATURES, [
    % FREE
    1, 1, 1, 1, 0, 0, 0, 0, 0, 1, 1, 0, 0, 0, 0, 0, 0, 0, 0, 1, 0, 0, 0, 0, 0, 0, 0, 0, 1, 0, 1, 0, 0,
    % STANDARD
    1, 1, 1, 0, 1, 0, 1, 1, 1, 1, 1, 1, 0, 0, 0, 1, 1, 0, 0, 1, 0, 1, 0, 0, 0, 0, 0, 1, 1, 1, 1, 0, 0,
    % PLUS
    1, 1, 1, 0, 1, 0, 1, 1, 1, 1, 1, 1, 1, 0, 0, 1, 1, 1, 1, 1, 1, 1, 1, 1, 1, 0, 0, 1, 1, 1, 1, 1, 1,
    % ENTERPRISE_GRID
    1, 1, 1, 0, 1, 0, 1, 1, 1, 1, 1, 1, 1, 0, 1, 1, 1, 1, 1, 1, 1, 1, 1, 1, 1, 1, 1, 1, 1, 1, 1, 1, 1
]);
plans_usage_limits = array2d(PLANS, USAGE_LIMITS, [
    % FREE
    10000, 10, 1, 5, 10, 1,
    % STANDARD
    10000000000000, 10000000000000, 15, 0, 10, 1,
    % PLUS
    10000000000000, 10000000000000, 15, 0, 20, 1,
    % ENTERPRISE_GRID
    10000000000000, 10000000000000, 15, 0, 1024, 10000000000000
]);

linked_features = array2d(USAGE_LIMITS, FEATURES, [
    % useMessagesAccess
    1,0,0,0,0,0,0,0,0,0,0,0,0,0,0,0,0,0,0,0,0,0,0,0,0,0,0,0,0,0,0,0,0,
    % useAppsAndServices
    0,0,1,0,0,0,0,0,0,0,0,0,0,0,0,0,0,0,0,0,0,0,0,0,0,0,0,0,0,0,0,0,0,
    % useVoiceAndVideoCalls
    0,0,0,0,0,0,0,0,0,0,0,0,0,0,0,0,0,0,0,0,0,0,0,0,0,0,0,0,0,1,0,0,0,
    % useStorageByAccount
    0,0,0,1,0,0,0,0,0,0,0,0,0,0,0,0,0,0,0,0,0,0,0,0,0,0,0,0,0,0,0,0,0,
    % useStorageByTeamMember
    0,0,0,0,1,0,0,0,0,0,0,0,0,0,0,0,0,0,0,0,0,0,0,0,0,0,0,0,0,0,0,0,0,
    % useWorkspaces
    0,0,0,0,0,1,0,0,0,0,0,0,0,0,0,0,0,0,0,0,0,0,0,0,0,0,0,0,0,0,0,0,0
]);

addons_features = array2d(ADDONS, FEATURES, [
    % slackEnterpriseKeys
    0,0,0,0,0,0,0,0,0,0,0,0,1,0,0,0,0,0,0,0,0,0,0,0,0,0,0,0,0,0,0,0,0
]);
addons_usage_limits = array2d(ADDONS, USAGE_LIMITS, [
    % slackEnterpriseKeys
    0,0,0,0,0,0
]);
addons_usage_limits_extensions = array2d(ADDONS, USAGE_LIMITS, [
    % slackEnterpriseKeys
    0,0,0,0,0,0
]);
addons_available_for = array2d(ADDONS, PLANS, [
    % slackEnterpriseKeys
    0,0,0,1
]);

addons_depends_on = array2d(ADDONS, ADDONS, [
    % slackEnterpriseKeys
    0
]);